MARKOV
6
2 2 2 2 2 2 
14
1 0
1 1
1 2
1 3
1 4
1 5
2 0 4
2 0 5
2 1 4
2 1 5
2 2 4
2 2 5
2 3 4
2 3 5

2
0 0.254282
2
0 0.814285
2
0 0.243525
2
0 0.929264
2
0 0.257508
2
0 0.840717
4
0 0
0 0.255095
4
0 0
0 0.959291
4
0 0
0 0.505957
4
0 0
0 0.547216
4
0 0
0 0.699077
4
0 0
0 0.138624
4
0 0
0 0.890903
4
0 0
0 0.149294
